sat
(
  (define-fun PriceProv2 () Int
    210)
  (define-fun PriceProv6 () Int
    460)
  (define-fun StorageProv5 () Int
    2000)
  (define-fun C5_VM3 () Int
    0)
  (define-fun MemProv6 () Int
    15000)
  (define-fun C1_VM5 () Int
    0)
  (define-fun C3_VM3 () Int
    0)
  (define-fun C4_VM6 () Int
    0)
  (define-fun StorageProv3 () Int
    2000)
  (define-fun StorageProv4 () Int
    2000)
  (define-fun C4_VM3 () Int
    1)
  (define-fun PriceProv3 () Int
    532)
  (define-fun PriceProv1 () Int
    0)
  (define-fun ProcProv5 () Int
    4)
  (define-fun C5_VM6 () Int
    1)
  (define-fun C3_VM1 () Int
    0)
  (define-fun VM4Type () Int
    182)
  (define-fun PriceProv5 () Int
    210)
  (define-fun StorageProv1 () Int
    1001)
  (define-fun C4_VM5 () Int
    0)
  (define-fun StorageProv6 () Int
    2000)
  (define-fun ProcProv3 () Int
    8)
  (define-fun VM5Type () Int
    182)
  (define-fun C1_VM2 () Int
    0)
  (define-fun C5_VM2 () Int
    1)
  (define-fun C2_VM6 () Int
    0)
  (define-fun C5_VM5 () Int
    1)
  (define-fun MemProv2 () Int
    7500)
  (define-fun C1_VM3 () Int
    0)
  (define-fun MemProv5 () Int
    7500)
  (define-fun ProcProv4 () Int
    4)
  (define-fun C3_VM4 () Int
    0)
  (define-fun C2_VM5 () Int
    1)
  (define-fun VM3Type () Int
    134)
  (define-fun C2_VM2 () Int
    1)
  (define-fun C1_VM6 () Int
    0)
  (define-fun C3_VM6 () Int
    1)
  (define-fun VM2Type () Int
    182)
  (define-fun MemProv1 () Int
    15251)
  (define-fun MemProv4 () Int
    7500)
  (define-fun MemProv3 () Int
    30000)
  (define-fun C2_VM3 () Int
    0)
  (define-fun C4_VM1 () Int
    0)
  (define-fun C3_VM2 () Int
    0)
  (define-fun C2_VM4 () Int
    0)
  (define-fun ProcProv1 () Int
    5)
  (define-fun ProcProv2 () Int
    4)
  (define-fun ProcProv6 () Int
    8)
  (define-fun VM6Type () Int
    136)
  (define-fun C3_VM5 () Int
    0)
  (define-fun C5_VM1 () Int
    0)
  (define-fun C4_VM4 () Int
    0)
  (define-fun PriceProv4 () Int
    210)
  (define-fun StorageProv2 () Int
    2000)
  (define-fun C4_VM2 () Int
    0)
  (define-fun VM1Type () Int
    0)
  (define-fun C5_VM4 () Int
    0)
  (define-fun C1_VM4 () Int
    1)
  (define-fun C2_VM1 () Int
    0)
  (define-fun C1_VM1 () Int
    0)
)
(objectives
 ((+ 0 PriceProv1 PriceProv2 PriceProv3 PriceProv4 PriceProv5 PriceProv6) 1622)
)
(:added-eqs                   312611
 :arith-eq-adapter            82750
 :arith-bound-propagations-lp 458560
 :arith-conflicts             133
 :arith-diseq                 1610884
 :arith-fixed-eqs             2485
 :arith-lower                 2574101
 :arith-make-feasible         74703
 :arith-max-columns           350
 :arith-max-rows              20
 :arith-upper                 701080
 :binary-propagations         2829025
 :bv-bit2core                 16263
 :bv-dynamic-diseqs           1539421
 :bv->core-eq                 1673
 :conflicts                   8545
 :decisions                   188410
 :del-clause                  2056426
 :final-checks                145
 :max-memory                  101.70
 :memory                      99.94
 :minimized-lits              337454
 :mk-bool-var                 161206
 :mk-clause                   2056575
 :mk-clause-binary            6283
 :num-allocs                  2679349910
 :num-checks                  113
 :pb-conflicts                225
 :pb-predicates               18
 :pb-propagations             4070
 :pb-resolves                 195
 :propagations                10937740
 :restarts                    66
 :rlimit-count                48432584
 :solve-eqs-elim-vars         1
 :solve-eqs-steps             10
 :time                        3.13
 :total-time                  3.15)
